10
0 45 41 7 29 14 26 47 31 49 
45 0 24 45 51 52 22 51 15 5 
41 24 0 38 33 41 32 27 18 28 
7 45 38 0 22 9 29 41 30 49 
29 51 33 22 0 17 43 21 37 55 
14 52 41 9 17 0 37 38 37 56 
26 22 32 29 43 37 0 52 14 25 
47 51 27 41 21 38 52 0 41 55 
31 15 18 30 37 37 14 41 0 19 
49 5 28 49 55 56 25 55 19 0 
